
  22   10
  10   10   10   10   10   10   10   10   10   10

   0   0   0   0   0   0   0   0   0   0   0   1 2 
   3   0   0   0   0   0   0  10   0   0   0   1 3 
   1   0   0   0   0   0   0  10   0   0   0   1 4 
   2   0   0  10   0   0   0   0   0   0   0   1 5 
   9   0   0   0  10   0   0   0   0   0   0   1 6 
   7   0   0   0   0   0   0   0   0  10   0   2 11 7 
   3   0  10   0   0   0   0   0   0   0   0   1 8 
   3   0  10   0   0   0   0   0   0   0   0   1 9 
   6   0   0   0   0   0   0   0   0  10   0   3 15 12 10 
   2   0   0   0   0   0   0   0  10   0   0   3 21 18 13 
   8   0   0   0   0   0  10   0   0   0   0   2 15 13 
   4   0   0   0  10   0   0   0   0   0   0   2 18 14 
   2   0   0   0   0   0   0   0   0  10   0   1 14 
   3   0  10   0   0   0   0   0   0   0   0   2 20 16 
   8   0   0   0   0   0   0   0  10   0   0   2 20 19 
   2   0   0   0   0   0   0  10   0   0   0   1 17 
   3   0  10   0   0   0   0   0   0   0   0   1 19 
   7   0   0   0   0   0   0  10   0   0   0   1 20 
   8  10   0   0   0   0   0   0   0   0   0   1 22
   3   0   0   0   0   0   0   0  10   0   0   1 22
  10   0   0   0   0   0   0   0   0  10   0   1 22
   0   0   0   0   0   0   0   0   0   0   0   0 
